(declare-const v2  Bool)
(get-qe (forall ((not                 Bool)(not Bool)(not Real)(not Real)(not Bool)(not Bool)(not Bool)(not Real))v2                                                                                             ))
(get-qe (forall ((not Bool)(not Bool)(q12 Bool) (q13 Bool) (q14 Bool) (q15 Real) (Real Real)(Bool Real))     v2                                                                                                                                                                                                                                           ))
